(set-logic QF_S)
(declare-fun _var_0xINPUT_233133_() String)
(declare-fun __woorpje_diseq_pref0_() String)
(declare-fun __woorpje_diseq_suf_l0_() String)
(declare-fun __woorpje_diseq_suf_r0_() String)
(assert (=(str.++ _var_0xINPUT_233133_  "")(str.++ __woorpje_diseq_pref0_  "y" __woorpje_diseq_suf_l0_  "")) )
(assert (=(str.++  "Type" "")(str.++ __woorpje_diseq_pref0_  "e" __woorpje_diseq_suf_r0_  "")) )
(check-sat)
